NAME: random_20_6
TYPE: TSP
COMMENT: random_20_6
DIMENSION: 20
EDGE_WEIGHT_TYPE: EUC_2D
NODE_COORD_SECTION
1 10 470
2 234 281
3 230 457
4 1 202
5 493 175
6 413 121
7 322 97
8 265 280
9 5 275
10 325 23
11 87 202
12 161 478
13 401 50
14 309 125
15 303 488
16 429 72
17 433 180
18 163 213
19 422 60
20 216 27
